; TODO try replacing this with int
(declare-datatype nat ((zero) (s (s_0 nat))))
(declare-datatype tree (par (a) ((Leaf) (Node (Node_0 (tree a)) (Node_1 a) (Node_2 (tree a))))))
(declare-fun plus (nat nat) nat)
(assert (forall ((x nat)) (= (plus zero x) x)))
(assert (forall ((x nat) (y nat)) (= (plus (s x) y) (s (plus x y)))))
(declare-fun less (par (a) (a a) Bool))
(assert (forall ((x nat)) (not (less nat x zero))))
(assert (forall ((x nat)) (less nat zero (s x))))
(assert (forall ((x nat) (y nat)) (= (less nat (s x) (s y)) (less nat x y))))
(declare-fun leq (par (a) (a a) Bool))
(assert (par (a) (forall ((x a) (y a)) (= (less a x y) (and (leq a x y) (distinct x y))))))
(assert (par (a) (forall ((x a)) (leq a x x))))
(assert (par (a) (forall ((x a) (y a) (z a)) (=> (and (leq a x y) (leq a y z)) (leq a x z)))))
(assert (par (a) (forall ((x a) (y a)) (=> (and (leq a x y) (leq a y x)) (= x y)))))
(assert (par (a) (forall ((x a) (y a)) (or (leq a x y) (leq a y x)))))
(declare-fun max (par (a) (a a) a))
(assert (par (a) (forall ((x a) (y a)) (= (max a x y) (ite (leq a x y) y x)))))
(declare-fun size (par (a) ((tree a)) nat))
(assert (par (a) (= (size a (Leaf a)) zero)))
(assert (par (a) (forall ((l (tree a)) (x a) (r (tree a))) (= (size a (Node a l x r)) (s (plus (size a l) (size a r)))))))
(declare-fun h (par (a) ((tree a)) nat))
(assert (par (a) (= (h a (Leaf a)) zero)))
(assert (par (a) (forall ((l (tree a)) (x a) (r (tree a))) (= (h a (Node a l x r)) (s (max nat (h a l) (h a r)))))))

; h(t) <= |t|
(assert-not (par (a) (forall ((t (tree a))) (leq nat (h a t) (size a t)))))
